set VV := 0 1 2 3 4 5 6 7 8 ;
set VS := 0 1 2 3 4 5 6 7 8 9 10 11 12 13 14 15 16 17 18 19 20 21 ;
param cv := 
0 23
1 16
2 15
3 14
4 20
5 21
6 21
7 13
8 12
;
param cs := 
0 40
1 23
2 24
3 23
4 20
5 23
6 20
7 21
8 25
9 24
10 37
11 26
12 36
13 34
14 26
15 37
16 29
17 27
18 40
19 23
20 33
21 40
;
param bv:	 0 1 2 3 4 5 6 7 8 := 
		0 0 0 0 0 0 0 20 0 19 
		1 0 0 0 0 11 0 0 0 0 
		2 0 0 0 0 21 11 0 0 0 
		3 0 0 0 0 10 0 0 0 0 
		4 0 0 0 0 0 0 0 0 0 
		5 0 0 0 0 0 0 0 19 13 
		6 0 0 0 0 0 0 0 0 23 
		7 0 0 0 0 0 0 0 0 0 
		8 0 0 0 0 0 0 0 0 0 
;
param bs:	 0 1 2 3 4 5 6 7 8 9 10 11 12 13 14 15 16 17 18 19 20 21 := 
		0 0 22 0 0 0 0 0 0 26 0 0 0 0 0 0 0 0 0 0 0 0 0 
		1 22 0 0 0 0 0 0 0 0 31 0 0 0 0 0 24 0 0 0 0 0 0 
		2 0 0 0 37 36 24 0 0 0 0 0 0 0 0 0 0 0 0 36 0 0 0 
		3 0 0 37 0 0 25 0 0 0 0 0 0 0 0 0 0 39 0 0 28 0 0 
		4 0 0 36 0 0 0 0 22 0 0 0 0 28 28 0 0 0 31 0 0 0 0 
		5 0 0 24 25 0 0 0 0 34 39 0 0 36 0 0 0 0 0 0 0 0 0 
		6 0 0 0 0 0 0 0 0 0 0 0 32 0 0 0 0 31 0 0 0 0 0 
		7 0 0 0 0 22 0 0 0 0 37 37 0 0 0 0 0 0 0 0 0 0 0 
		8 26 0 0 0 0 34 0 0 0 0 0 0 0 0 0 0 0 0 39 0 0 0 
		9 0 31 0 0 0 39 0 37 0 0 0 0 0 0 0 0 29 0 0 0 0 0 
		10 0 0 0 0 0 0 0 37 0 0 0 0 0 0 34 0 0 38 0 0 0 0 
		11 0 0 0 0 0 0 32 0 0 0 0 0 0 0 0 0 25 0 20 0 0 0 
		12 0 0 0 0 28 36 0 0 0 0 0 0 0 29 0 0 0 0 26 0 0 31 
		13 0 0 0 0 28 0 0 0 0 0 0 0 29 0 0 40 0 0 0 0 0 0 
		14 0 0 0 0 0 0 0 0 0 0 34 0 0 0 0 0 0 0 27 0 0 0 
		15 0 24 0 0 0 0 0 0 0 0 0 0 0 40 0 0 0 0 0 0 0 0 
		16 0 0 0 39 0 0 31 0 0 29 0 25 0 0 0 0 0 25 0 0 0 0 
		17 0 0 0 0 31 0 0 0 0 0 38 0 0 0 0 0 25 0 0 0 38 0 
		18 0 0 36 0 0 0 0 0 39 0 0 20 26 0 27 0 0 0 0 0 0 0 
		19 0 0 0 28 0 0 0 0 0 0 0 0 0 0 0 0 0 0 0 0 0 0 
		20 0 0 0 0 0 0 0 0 0 0 0 0 0 0 0 0 0 38 0 0 0 0 
		21 0 0 0 0 0 0 0 0 0 0 0 0 31 0 0 0 0 0 0 0 0 0 
;
